db/data/534927764227767431845812917120291852.z3.out
sat
-------------------
1492.276974843
